NAME : gr120
TYPE : OP
DIMENSION : 120
COST_LIMIT : 5901
ROUTE_NODES : 108
ROUTE_SCORE : 5830
ROUTE_COST : 5896
NODE_SEQUENCE_SECTION
1
61
16
60
24
111
96
90
54
8
70
116
34
4
26
71
47
55
89
6
84
35
10
104
99
62
37
67
106
112
110
102
101
80
27
5
63
73
57
83
39
95
77
64
93
21
2
115
11
51
23
9
82
3
119
103
38
7
56
72
40
105
74
87
14
75
44
46
50
98
42
17
49
118
20
107
113
69
65
68
91
58
100
33
52
79
43
108
25
19
18
85
117
66
22
81
94
86
78
45
28
120
29
30
32
15
59
76
-1
DEPOT_SECTION
1
-1
EOF
